NAME : d198
TYPE : OP
DIMENSION : 198
COST_LIMIT : 7890
ROUTE_NODES : 121
ROUTE_SCORE : 6290
ROUTE_COST : 7890
NODE_SEQUENCE_SECTION
1
15
14
29
30
32
37
36
33
34
39
47
52
46
53
62
65
81
76
77
78
64
50
48
49
63
79
80
91
92
105
114
113
112
106
107
111
110
109
108
169
125
126
170
127
129
130
133
135
136
144
150
145
146
149
152
162
161
153
148
147
142
143
141
140
134
132
131
124
120
119
118
117
116
115
104
103
102
93
101
94
95
96
90
89
97
98
88
83
82
74
66
61
54
45
44
55
60
59
68
67
70
73
72
84
87
99
100
86
85
71
69
58
57
13
12
11
10
9
5
4
-1
DEPOT_SECTION
1
-1
EOF
